id=[89102] dblock_code=[20061005222852Mn
   2.92349555997793     
     0.1888892462413697    0.9048419265737693   -0.0000000000000011
    -2.2531263952481870    0.9424854786683038    0.0000000413487762
    -0.0944445826942634   -0.4524209717357175    2.3981769983866221
   Mn   O 
     4     8
Direct
  0.8296305614952648  0.8132566714696372  0.4725177944601671
  0.6428872329649089  0.5274822055398330  0.8132566714696372
  0.3571127670350908  0.4725177944601671  0.1867433285303630
  0.1703694385047350  0.1867433285303629  0.5274822055398330
  0.2001867557936871  0.9609751554094086  0.3613486669967684
  0.4612109269866162  0.7011011070202591  0.6235229609935049
  0.1611619112030885  0.6386513330032313  0.9609751554094087
  0.8376879659931183  0.6235229609935049  0.2988988929797416
  0.1623120340068817  0.3764770390064949  0.7011011070202591
  0.8388380887969115  0.3613486669967684  0.0390248445905916
  0.5387890730133834  0.2988988929797416  0.3764770390064948
  0.7998132442063129  0.0390248445905916  0.6386513330032314
