id=[90756] dblock_code=[20060726163645Al
   4.80959897991013     
     0.9995915713381752    0.0000000000000000    0.0000000000000000
    -0.4997957856690876    0.8656716945028391    0.0000000000000000
     0.0000000000000000    0.0000000000000000    2.7268120094745347
   Al   O 
    12    18
Direct
  0.3333333300000021  0.6666666699999979  0.8144814093559720
  0.3333333300000021  0.6666666699999979  0.0188519206440230
  0.3333333300000021  0.6666666699999979  0.5188519206440230
  0.3333333300000021  0.6666666699999979  0.3144814093559720
  0.0000000000000000  0.0000000000000000  0.1478147393559741
  0.0000000000000000  0.0000000000000000  0.3521852606440259
  0.0000000000000000  0.0000000000000000  0.6478147393559741
  0.0000000000000000  0.0000000000000000  0.8521852606440259
  0.6666666699999979  0.3333333300000021  0.1855185906440280
  0.6666666699999979  0.3333333300000021  0.6855185906440280
  0.6666666699999979  0.3333333300000021  0.4811480793559770
  0.6666666699999979  0.3333333300000021  0.9811480793559770
  0.0000000000000000  0.6938218539199966  0.2500000000000000
  0.0271551839199988  0.6666666699999979  0.9166666699999979
  0.0271551839199988  0.3604885239199946  0.4166666699999979
  0.3333333300000021  0.9728448160800013  0.4166666699999979
  0.0000000000000000  0.3061781460800033  0.7500000000000000
  0.3333333300000021  0.3604885239199946  0.9166666699999979
  0.6395114760800055  0.9728448160800013  0.9166666699999979
  0.3061781460800033  0.3061781460800033  0.2500000000000000
  0.3604885239199946  0.3333333300000021  0.5833333300000021
  0.6395114760800055  0.6666666699999979  0.4166666699999979
  0.3061781460800033  0.0000000000000000  0.7500000000000000
  0.6938218539199966  0.6938218539199966  0.7500000000000000
  0.3604885239199946  0.0271551839199988  0.0833333300000021
  0.6666666699999979  0.6395114760800055  0.0833333300000021
  0.6666666699999979  0.0271551839199988  0.5833333300000021
  0.9728448160800013  0.6395114760800055  0.5833333300000021
  0.6938218539199966  0.0000000000000000  0.2500000000000000
  0.9728448160800013  0.3333333300000021  0.0833333300000021
